# Solution for model crossbreeding_srl_ilp
# Objective value = 5.3827096472689273e-01
Z_34_0_0 0
Z_34_0_1 0
Z_34_0_2 1
Z_34_0_3 0
Z_416_0_0 0
Z_416_0_1 0
Z_416_0_2 1
Z_416_0_3 0
Z_416_1_0 0
Z_416_1_1 1
Z_416_1_2 0
Z_416_1_3 0
Z_298_0_0 1
Z_298_0_1 0
Z_298_0_2 0
Z_298_0_3 0
